12971 21 30 22 06 00 01 00 30 01 35 03 25 04 02 04 19 05 25 06 50 09 44 10 33
19011 05 45 06 25 08 43 09 15 10 28 11 29 12 40 13 17 13 32 14 55
12933 13 40 14 15 16 11 16 37 17 35 18 24 19 25 20 05 20 22 21 25
19005 20 25 21 14 23 05 23 32 00 37 01 31 02 30 03 06 03 23 04 45
19143 19 40 20 17 22 31 22 58 00 22 01 22 02 22 02 57 03 14 04 35
12009 06 25 06 57 08 28 09 40 10 24 11 15 11 50 12 07 13 10
12931 14 20 14 55 16 26 17 55 18 39 19 35 20 15 20 32 21 40
12901 22 00 22 51 01 01 02 10 03 18 04 17 04 52 05 09 06 35
19109 04 05 05 38 06 49 08 00 08 42 09 03 10 15
12921 17 55 18 34 20 30 21 03 22 35
19129 18 10 18 55 19 16 20 30
12927 23 40 00 14 04 03 04 51 05 55
12267 23 25 05 50